
Welcome to IBM(R) ILOG(R) CPLEX(R) Interactive Optimizer Community Edition 12.9.0.0
  with Simplex, Mixed Integer & Barrier Optimizers
5725-A06 5725-A29 5724-Y48 5724-Y49 5724-Y54 5724-Y55 5655-Y21
Copyright IBM Corp. 1988, 2019.  All Rights Reserved.

Type 'help' for a list of available commands.
Type 'help' followed by a command name for more
information on commands.

CPLEX> Problem 'files/777.lp' read.
Read time = 0.00 sec. (0.07 ticks)
CPLEX> Tried aggregator 2 times.
MIP Presolve eliminated 147 rows and 98 columns.
MIP Presolve modified 48 coefficients.
Aggregator did 343 substitutions.
Reduced MIP has 56 rows, 344 columns, and 693 nonzeros.
Reduced MIP has 343 binaries, 0 generals, 0 SOSs, and 0 indicators.
Presolve time = 0.00 sec. (1.30 ticks)
Found incumbent of value 196.000000 after 0.01 sec. (1.50 ticks)
Probing time = 0.00 sec. (0.20 ticks)
Cover probing fixed 0 vars, tightened 6 bounds.
Tried aggregator 1 time.
Reduced MIP has 56 rows, 344 columns, and 693 nonzeros.
Reduced MIP has 343 binaries, 0 generals, 0 SOSs, and 0 indicators.
Presolve time = 0.00 sec. (0.61 ticks)
Probing time = 0.00 sec. (0.05 ticks)
MIP emphasis: balance optimality and feasibility.
MIP search method: dynamic search.
Parallel mode: deterministic, using up to 4 threads.
Root relaxation solution time = 0.00 sec. (0.65 ticks)

        Nodes                                         Cuts/
   Node  Left     Objective  IInf  Best Integer    Best Bound    ItCnt     Gap

*     0+    0                          196.0000        7.0000            96.43%
      0     0       56.0000    10      196.0000       56.0000       92   71.43%
*     0+    0                           58.0000       56.0000             3.45%
      0     0       56.0000    16       58.0000      Cuts: 14      109    3.45%
      0     0       56.0000    14       58.0000      Cuts: 13      120    3.45%
      0     0       56.0000    14       58.0000       Cuts: 9      129    3.45%
*     0+    0                           57.5000       56.0000             2.61%
*     0+    0                           57.0000       56.0000             1.75%
*     0+    0                           56.5000       56.0000             0.88%
*     0+    0                           56.0000       56.0000             0.00%
      0     0        cutoff             56.0000       56.0000      137    0.00%
Elapsed time = 0.07 sec. (26.10 ticks, tree = 0.01 MB, solutions = 6)

Cover cuts applied:  1
Mixed integer rounding cuts applied:  1
Zero-half cuts applied:  1

Root node processing (before b&c):
  Real time             =    0.07 sec. (26.15 ticks)
Parallel b&c, 4 threads:
  Real time             =    0.00 sec. (0.00 ticks)
  Sync time (average)   =    0.00 sec.
  Wait time (average)   =    0.00 sec.
                          ------------
Total (root+branch&cut) =    0.07 sec. (26.15 ticks)

Solution pool: 6 solutions saved.

MIP - Integer optimal solution:  Objective =  5.6000000000e+01
Solution time =    0.07 sec.  Iterations = 137  Nodes = 0
Deterministic time = 26.16 ticks  (375.78 ticks/sec)

CPLEX> Incumbent solution
Variable Name           Solution Value
r                            56.000000
x111                          1.000000
x131                          1.000000
x112                          1.500000
x122                          1.500000
x113                          2.000000
x163                          2.000000
x124                          2.500000
x144                          2.500000
x125                          3.000000
x135                          3.000000
x156                          3.500000
x166                          3.500000
x117                          4.000000
x127                          4.000000
x211                          1.500000
x221                          1.500000
x212                          2.000000
x222                          2.000000
x213                          2.500000
x223                          2.500000
x224                          3.000000
x264                          3.000000
x235                          3.500000
x255                          3.500000
x246                          4.000000
x276                          4.000000
x257                          4.500000
x277                          4.500000
x311                          2.000000
x321                          2.000000
x312                          2.500000
x322                          2.500000
x363                          3.000000
x373                          3.000000
x314                          3.500000
x334                          3.500000
x335                          4.000000
x365                          4.000000
x336                          4.500000
x376                          4.500000
x317                          5.000000
x357                          5.000000
x411                          2.500000
x441                          2.500000
x422                          3.000000
x432                          3.000000
x433                          3.500000
x453                          3.500000
x454                          4.000000
x474                          4.000000
x425                          4.500000
x465                          4.500000
x426                          5.000000
x476                          5.000000
x427                          5.500000
x477                          5.500000
x541                          3.000000
x561                          3.000000
x512                          3.500000
x532                          3.500000
x543                          4.000000
x563                          4.000000
x554                          4.500000
x574                          4.500000
x525                          5.000000
x575                          5.000000
x546                          5.500000
x566                          5.500000
x537                          6.000000
x547                          6.000000
x621                          3.500000
x631                          3.500000
x652                          4.000000
x662                          4.000000
x643                          4.500000
x653                          4.500000
x664                          5.000000
x674                          5.000000
x645                          5.500000
x675                          5.500000
x616                          6.000000
x656                          6.000000
x637                          6.500000
x647                          6.500000
x731                          4.000000
x761                          4.000000
x712                          4.500000
x762                          4.500000
x713                          5.000000
x723                          5.000000
x744                          5.500000
x774                          5.500000
x755                          6.000000
x765                          6.000000
x736                          6.500000
x746                          6.500000
x717                          7.000000
x757                          7.000000
c11                           9.000000
c12                          11.000000
c13                           4.000000
c14                           3.000000
c15                           4.000000
c16                           6.000000
c21                           6.000000
c22                           9.000000
c23                           4.000000
c24                           4.000000
c25                           8.000000
c26                           3.000000
c27                           9.000000
c31                          13.000000
c32                           5.000000
c33                          12.000000
c35                           5.000000
c36                           7.000000
c37                           8.000000
c41                           3.000000
c42                          18.000000
c43                           7.000000
c44                           3.000000
c45                           8.000000
c46                           5.000000
c47                          15.000000
c51                           4.000000
c52                           5.000000
c53                          10.000000
c54                          19.000000
c55                           5.000000
c56                          13.000000
c57                          10.000000
c61                           6.000000
c62                           4.000000
c63                          10.000000
c64                          17.000000
c65                          15.000000
c66                           9.000000
c67                          11.000000
c71                          17.000000
c72                           5.000000
c73                          11.000000
c74                          12.000000
c75                          13.000000
c76                          15.000000
c77                           6.000000
d11                           7.000000
d21                           7.000000
d31                           9.000000
d41                           6.000000
d61                           7.000000
d12                          14.000000
d22                           9.000000
d32                           7.000000
d52                           4.000000
d62                           9.000000
d13                          10.000000
d23                           8.000000
d33                           4.000000
d43                           9.000000
d53                           8.000000
d63                           9.000000
d73                           3.000000
d14                           4.000000
d24                           6.000000
d34                           4.000000
d44                           8.000000
d54                           9.000000
d64                           8.000000
d74                          19.000000
d25                          13.000000
d35                          11.000000
d45                           6.000000
d55                          10.000000
d65                          15.000000
d75                          11.000000
d16                           6.000000
d26                           5.000000
d36                          11.000000
d46                          16.000000
d56                          10.000000
d66                           9.000000
d76                          14.000000
d17                          16.000000
d27                          10.000000
d37                          13.000000
d47                          13.000000
d57                          17.000000
d77                          10.000000
u111                          1.000000
u131                          1.000000
u112                          1.000000
u122                          1.000000
u113                          1.000000
u163                          1.000000
u124                          1.000000
u144                          1.000000
u125                          1.000000
u135                          1.000000
u156                          1.000000
u166                          1.000000
u117                          1.000000
u127                          1.000000
u211                          1.000000
u221                          1.000000
u212                          1.000000
u222                          1.000000
u213                          1.000000
u223                          1.000000
u224                          1.000000
u264                          1.000000
u235                          1.000000
u255                          1.000000
u246                          1.000000
u276                          1.000000
u257                          1.000000
u277                          1.000000
u311                          1.000000
u321                          1.000000
u312                          1.000000
u322                          1.000000
u363                          1.000000
u373                          1.000000
u314                          1.000000
u334                          1.000000
u335                          1.000000
u365                          1.000000
u336                          1.000000
u376                          1.000000
u317                          1.000000
u357                          1.000000
u411                          1.000000
u441                          1.000000
u422                          1.000000
u432                          1.000000
u433                          1.000000
u453                          1.000000
u454                          1.000000
u474                          1.000000
u425                          1.000000
u465                          1.000000
u426                          1.000000
u476                          1.000000
u427                          1.000000
u477                          1.000000
u541                          1.000000
u561                          1.000000
u512                          1.000000
u532                          1.000000
u543                          1.000000
u563                          1.000000
u554                          1.000000
u574                          1.000000
u525                          1.000000
u575                          1.000000
u546                          1.000000
u566                          1.000000
u537                          1.000000
u547                          1.000000
u621                          1.000000
u631                          1.000000
u652                          1.000000
u662                          1.000000
u643                          1.000000
u653                          1.000000
u664                          1.000000
u674                          1.000000
u645                          1.000000
u675                          1.000000
u616                          1.000000
u656                          1.000000
u637                          1.000000
u647                          1.000000
u731                          1.000000
u761                          1.000000
u712                          1.000000
u762                          1.000000
u713                          1.000000
u723                          1.000000
u744                          1.000000
u774                          1.000000
u755                          1.000000
u765                          1.000000
u736                          1.000000
u746                          1.000000
u717                          1.000000
u757                          1.000000
All other variables in the range 1-785 are 0.
CPLEX> 